(set-logic ALL)
(declare-fun var0 () String)
(assert (str.in_re var0 (re.++ (re.union (re.* (str.to_re "000")) (re.* (str.to_re "111"))) (re.++ (re.+ (re.union (str.to_re "222") (str.to_re "3"))) (re.++ (re.+ (re.* (str.to_re "444"))) (re.++ (re.* (re.+ (str.to_re "55"))) (re.++ (re.+ (re.+ (str.to_re "66"))) (re.++ (re.union (re.union (str.to_re "7") (str.to_re "88")) (re.union (str.to_re "9") (str.to_re "aa"))) (re.++ (re.+ (re.+ (str.to_re "bb"))) (re.++ (re.+ (re.+ (str.to_re "ccc"))) (re.++ (re.union (re.union (str.to_re "dd") (str.to_re "ee")) (re.union (str.to_re "f") (str.to_re "g"))) (re.++ (re.union (re.union (str.to_re "hhh") (str.to_re "ii")) (re.union (str.to_re "jj") (str.to_re "kkk"))) (re.++ (re.+ (re.+ (str.to_re "lll"))) (re.++ (re.+ (re.* (str.to_re "m"))) (re.++ (re.* (re.* (str.to_re "nn"))) (re.++ (re.* (re.+ (str.to_re "o"))) (re.++ (re.+ (re.+ (str.to_re "ppp"))) (re.++ (re.* (re.union (str.to_re "q") (str.to_re "rr"))) (re.++ (re.+ (re.+ (str.to_re "sss"))) (re.++ (re.union (re.* (str.to_re "t")) (re.* (str.to_re "u"))) (re.++ (re.union (re.* (str.to_re "v")) (re.* (str.to_re "www"))) (re.++ (re.+ (re.+ (str.to_re "xx"))) (re.++ (re.+ (re.union (str.to_re "yy") (str.to_re "z"))) (re.++ (re.+ (re.+ (str.to_re "A"))) (re.++ (re.* (re.* (str.to_re "BBB"))) (re.++ (re.union (re.* (str.to_re "CCC")) (re.* (str.to_re "D"))) (re.++ (re.* (re.* (str.to_re "EEE"))) (re.++ (re.* (re.* (str.to_re "FF"))) (re.++ (re.union (re.* (str.to_re "GG")) (re.* (str.to_re "HH"))) (re.++ (re.union (re.+ (str.to_re "III")) (re.+ (str.to_re "J"))) (re.++ (re.* (re.+ (str.to_re "KKK"))) (re.++ (re.* (re.+ (str.to_re "LL"))) (re.++ (re.* (re.union (str.to_re "MM") (str.to_re "N"))) (re.++ (re.* (re.* (str.to_re "OO"))) (re.++ (re.* (re.+ (str.to_re "P"))) (re.++ (re.+ (re.union (str.to_re "Q") (str.to_re "RR"))) (re.++ (re.* (re.* (str.to_re "S"))) (re.++ (re.+ (re.* (str.to_re "TTT"))) (re.++ (re.* (re.+ (str.to_re "UUU"))) (re.++ (re.+ (re.union (str.to_re "V") (str.to_re "W"))) (re.++ (re.+ (re.+ (str.to_re "XXX"))) (re.++ (re.+ (re.* (str.to_re "YY"))) (re.++ (re.* (re.union (str.to_re "Z") (str.to_re "!!!"))) (re.++ (re.* (re.+ (str.to_re """"))) (re.++ (re.union (re.+ (str.to_re "###")) (re.+ (str.to_re "$$$"))) (re.++ (re.union (re.+ (str.to_re "%%")) (re.+ (str.to_re "&&"))) (re.++ (re.union (re.union (str.to_re "'") (str.to_re "(")) (re.union (str.to_re ")") (str.to_re "**"))) (re.++ (re.+ (re.* (str.to_re "++"))) (re.++ (re.+ (re.+ (str.to_re ",,,"))) (re.++ (re.union (re.* (str.to_re "-")) (re.* (str.to_re "."))) (re.* (re.* (str.to_re "///")))))))))))))))))))))))))))))))))))))))))))))))))))))
(check-sat)